NAME: random-83-32749
TYPE: TSP
COMMENT: size=83 seed=32749
DIMENSION: 168
EDGE_WEIGHT_TYPE: EUC_2D
NODE_COORD_SECTION
+0 443 872
-0 443 872
+1 361 738
-1 76 518
+2 165 371
-2 887 115
+3 697 54
-3 13 238
+4 510 977
-4 428 105
+5 163 904
-5 705 503
+6 423 185
-6 34 717
+7 103 854
-7 289 907
+8 523 545
-8 755 514
+9 725 764
-9 286 221
+10 53 809
-10 455 527
+11 873 145
-11 577 628
+12 596 469
-12 402 282
+13 750 762
-13 377 566
+14 872 945
-14 545 346
+15 756 100
-15 725 120
+16 732 378
-16 168 355
+17 186 312
-17 343 509
+18 737 615
-18 729 816
+19 235 384
-19 439 800
+20 965 471
-20 328 987
+21 435 503
-21 475 464
+22 842 149
-22 320 70
+23 980 195
-23 622 799
+24 19 387
-24 169 715
+25 637 872
-25 344 692
+26 615 655
-26 354 299
+27 412 468
-27 452 284
+28 191 85
-28 54 177
+29 254 202
-29 350 251
+30 327 369
-30 500 143
+31 495 517
-31 32 138
+32 666 385
-32 502 347
+33 237 637
-33 638 970
+34 753 631
-34 416 772
+35 635 83
-35 951 96
+36 690 968
-36 692 718
+37 283 788
-37 216 724
+38 986 904
-38 661 298
+39 58 671
-39 866 921
+40 75 500
-40 334 298
+41 199 790
-41 131 959
+42 371 227
-42 762 518
+43 241 545
-43 587 202
+44 261 763
-44 18 533
+45 803 169
-45 404 94
+46 23 662
-46 519 263
+47 50 356
-47 705 889
+48 201 557
-48 934 680
+49 526 752
-49 182 672
+50 495 543
-50 466 972
+51 242 757
-51 59 708
+52 692 680
-52 955 921
+53 655 284
-53 689 947
+54 558 87
-54 359 750
+55 563 908
-55 324 879
+56 622 47
-56 971 527
+57 299 803
-57 796 331
+58 395 990
-58 539 161
+59 317 153
-59 224 443
+60 724 995
-60 178 842
+61 461 229
-61 484 482
+62 892 871
-62 863 746
+63 270 860
-63 155 941
+64 950 830
-64 585 509
+65 79 542
-65 629 448
+66 881 828
-66 505 269
+67 875 954
-67 679 168
+68 551 792
-68 887 406
+69 25 806
-69 705 70
+70 280 198
-70 492 200
+71 672 654
-71 456 99
+72 868 127
-72 372 866
+73 806 733
-73 253 427
+74 282 636
-74 374 355
+75 450 50
-75 748 766
+76 944 826
-76 332 432
+77 38 887
-77 564 807
+78 613 792
-78 310 0
+79 845 674
-79 851 249
+80 880 968
-80 570 503
+81 423 815
-81 245 333
+82 217 889
-82 189 649
+83 983 498
-83 647 253
PRECEDENCE_SECTION
+0 -0
+1 -1
+2 -2
+3 -3
+4 -4
+5 -5
+6 -6
+7 -7
+8 -8
+9 -9
+10 -10
+11 -11
+12 -12
+13 -13
+14 -14
+15 -15
+16 -16
+17 -17
+18 -18
+19 -19
+20 -20
+21 -21
+22 -22
+23 -23
+24 -24
+25 -25
+26 -26
+27 -27
+28 -28
+29 -29
+30 -30
+31 -31
+32 -32
+33 -33
+34 -34
+35 -35
+36 -36
+37 -37
+38 -38
+39 -39
+40 -40
+41 -41
+42 -42
+43 -43
+44 -44
+45 -45
+46 -46
+47 -47
+48 -48
+49 -49
+50 -50
+51 -51
+52 -52
+53 -53
+54 -54
+55 -55
+56 -56
+57 -57
+58 -58
+59 -59
+60 -60
+61 -61
+62 -62
+63 -63
+64 -64
+65 -65
+66 -66
+67 -67
+68 -68
+69 -69
+70 -70
+71 -71
+72 -72
+73 -73
+74 -74
+75 -75
+76 -76
+77 -77
+78 -78
+79 -79
+80 -80
+81 -81
+82 -82
+83 -83
EOF
